=obj= -8.6743426071e+03
z0 1
z1 1
z2 0
z3 0
z4 0
z5 1
z6 1
z7 0
z8 0
z9 1
z10 0
z11 0
z12 0
z13 0
z14 0
z15 1
z16 0
z17 0
z18 1
z19 0
z20 1
z21 1
z22 0
z23 1
z24 0
z25 1
z26 0
z27 1
z28 0
z29 1
z30 1
z31 0
z32 0
z33 0
z34 1
z35 0
z36 1
z37 0
z38 0
z39 1
z40 0
z41 1
z42 0
z43 0
z44 1
z45 0
z46 1
z47 0
z48 0
z49 0
z50 0
z51 1
z52 1
z53 0
z54 0
z55 1
z56 0
z57 1
z58 0
z59 1
z60 0
z61 1
z62 0
z63 0
z64 0
z65 0
z66 1
z67 1
z68 0
z69 0
z70 0
z71 1
z72 0
z73 0
z74 0
z75 0
z76 0
z77 0
z78 1
z79 0
z80 0
z81 1
z82 0
z83 0
z84 0
z85 1
z86 1
z87 0
z88 1
z89 1
z90 1
z91 1
z92 0
z93 1
z94 0
z95 0
z96 0
z97 1
z98 0
z99 0
l0100 0
l0101 0
l0102 0
l0103 0
l0104 0
l0105 0
l0106 0
l0107 0
l0108 0
l0109 0
l0110 0
l0111 0
l0112 0
l0113 0
l0114 0
l0115 0
l0116 0
l0117 0
l0118 0
l0119 0
l0120 0
l0121 0
l0122 0
l0123 0
l0124 0
l1100 0
l1101 0
l1102 0
l1103 0
l1104 0
l1105 0
l1106 0
l1107 0
l1108 0
l1109 0
l1110 0
l1111 0
l1112 0
l1113 0
l1114 0
l1115 0
l1116 0
l1117 0
l1118 0
l1119 0
l1120 0
l1121 0
l1122 0
l1123 0
l1124 0
l2100 1
l2101 0
l2102 1
l2103 1
l2104 1
l2105 1
l2106 0
l2107 1
l2108 1
l2109 1
l2110 0
l2111 0
l2112 1
l2113 1
l2114 1
l2115 1
l2116 0
l2117 1
l2118 6.0000000000000064e-01
l2119 1
l2120 0
l2121 1
l2122 1
l2123 1
l2124 1
l3100 1
l3101 0
l3102 1
l3103 1
l3104 1
l3105 1
l3106 1
l3107 1
l3108 0
l3109 1
l3110 1
l3111 1
l3112 0
l3113 1
l3114 5.7333333333333292e-01
l3115 1
l3116 1
l3117 0
l3118 1
l3119 1
l3120 4.0779220779220826e-01
l3121 1
l3122 0
l3123 1
l3124 0
l4100 1
l4101 0
l4102 1
l4103 2.8285714285714186e-01
l4104 1
l4105 1
l4106 1
l4107 1
l4108 1
l4109 1
l4110 1
l4111 1
l4112 0
l4113 0
l4114 1
l4115 1
l4116 1
l4117 1.0697674418604831e-01
l4118 1
l4119 1
l4120 0
l4121 1
l4122 0
l4123 1
l4124 1
l5100 0
l5101 0
l5102 0
l5103 0
l5104 0
l5105 0
l5106 0
l5107 0
l5108 0
l5109 0
l5110 0
l5111 0
l5112 0
l5113 0
l5114 0
l5115 0
l5116 0
l5117 0
l5118 0
l5119 0
l5120 0
l5121 0
l5122 0
l5123 0
l5124 0
l6100 0
l6101 0
l6102 0
l6103 0
l6104 0
l6105 0
l6106 0
l6107 0
l6108 0
l6109 0
l6110 0
l6111 0
l6112 0
l6113 0
l6114 0
l6115 0
l6116 0
l6117 0
l6118 0
l6119 0
l6120 0
l6121 0
l6122 0
l6123 0
l6124 0
l7100 1
l7101 0
l7102 1
l7103 1
l7104 1
l7105 1
l7106 0
l7107 1
l7108 1
l7109 0
l7110 0
l7111 1
l7112 0
l7113 0
l7114 1
l7115 1
l7116 0
l7117 0
l7118 1
l7119 1
l7120 8.6285714285714232e-01
l7121 1
l7122 1
l7123 1
l7124 1
l8100 1
l8101 0
l8102 1
l8103 0
l8104 1
l8105 1
l8106 1
l8107 1
l8108 1
l8109 0
l8110 0
l8111 1
l8112 0
l8113 1
l8114 1
l8115 1
l8116 1
l8117 1
l8118 0
l8119 0
l8120 1
l8121 1
l8122 1
l8123 1
l8124 8.4175824175824199e-01
l9100 0
l9101 0
l9102 0
l9103 0
l9104 0
l9105 0
l9106 0
l9107 0
l9108 0
l9109 0
l9110 0
l9111 0
l9112 0
l9113 0
l9114 0
l9115 0
l9116 0
l9117 0
l9118 0
l9119 0
l9120 0
l9121 0
l9122 0
l9123 0
l9124 0
l10100 1
l10101 1
l10102 1
l10103 1
l10104 1
l10105 1
l10106 1
l10107 1
l10108 1
l10109 1
l10110 1
l10111 1.5476190476190477e-01
l10112 0
l10113 0
l10114 1
l10115 1
l10116 1
l10117 0
l10118 1
l10119 1
l10120 0
l10121 0
l10122 0
l10123 1
l10124 1
l11100 6.6233766233765878e-01
l11101 0
l11102 1
l11103 1
l11104 1
l11105 1
l11106 0
l11107 1
l11108 1
l11109 1
l11110 1
l11111 1
l11112 1
l11113 0
l11114 1
l11115 1
l11116 0
l11117 1
l11118 8.6363636363636997e-01
l11119 0
l11120 0
l11121 1
l11122 0
l11123 1
l11124 1
l12100 1
l12101 1
l12102 1
l12103 0
l12104 1
l12105 1
l12106 1
l12107 1
l12108 9.5128205128205157e-01
l12109 1
l12110 1
l12111 1
l12112 0
l12113 0
l12114 0
l12115 1
l12116 9.9999999999999800e-01
l12117 1
l12118 1
l12119 1
l12120 0
l12121 1
l12122 0
l12123 0
l12124 1
l13100 1
l13101 1
l13102 1
l13103 1
l13104 1
l13105 1
l13106 1
l13107 1
l13108 1
l13109 1
l13110 1
l13111 1
l13112 0
l13113 0
l13114 1
l13115 7.7283950617284047e-01
l13116 1
l13117 0
l13118 1
l13119 1
l13120 0
l13121 1
l13122 1
l13123 0
l13124 1
l14100 8.8372093023255949e-01
l14101 1
l14102 1
l14103 0
l14104 1
l14105 1
l14106 0
l14107 0
l14108 1
l14109 1
l14110 1
l14111 1
l14112 0
l14113 1
l14114 1
l14115 0
l14116 1
l14117 0
l14118 1
l14119 1
l14120 0
l14121 1
l14122 0
l14123 1
l14124 0
l15100 0
l15101 0
l15102 0
l15103 0
l15104 0
l15105 0
l15106 0
l15107 0
l15108 0
l15109 0
l15110 0
l15111 0
l15112 0
l15113 0
l15114 0
l15115 0
l15116 0
l15117 0
l15118 0
l15119 0
l15120 0
l15121 0
l15122 0
l15123 0
l15124 0
l16100 1
l16101 0
l16102 1
l16103 1
l16104 1
l16105 1
l16106 1
l16107 1
l16108 8.9318181818181841e-01
l16109 1
l16110 1
l16111 0
l16112 0
l16113 0
l16114 1
l16115 1
l16116 1
l16117 1
l16118 0
l16119 0
l16120 1
l16121 1
l16122 0
l16123 1
l16124 1
l17100 1
l17101 1
l17102 1
l17103 1
l17104 1
l17105 1
l17106 1
l17107 0
l17108 1
l17109 1
l17110 0
l17111 1
l17112 0
l17113 9.9999999999999944e-01
l17114 1
l17115 2.2191780821917922e-01
l17116 1
l17117 0
l17118 1
l17119 1
l17120 0
l17121 0
l17122 1
l17123 0
l17124 1
l18100 0
l18101 0
l18102 0
l18103 0
l18104 0
l18105 0
l18106 0
l18107 0
l18108 0
l18109 0
l18110 0
l18111 0
l18112 0
l18113 0
l18114 0
l18115 0
l18116 3.3306690738754696e-16
l18117 0
l18118 0
l18119 0
l18120 0
l18121 0
l18122 0
l18123 0
l18124 0
l19100 1
l19101 0
l19102 1
l19103 1
l19104 0
l19105 1
l19106 1
l19107 1
l19108 1
l19109 1
l19110 9.8181818181819058e-01
l19111 0
l19112 1
l19113 0
l19114 1
l19115 1
l19116 1
l19117 0
l19118 1
l19119 9.2183908045976803e-01
l19120 0
l19121 1
l19122 0
l19123 6.7816091954022362e-01
l19124 1
l20100 0
l20101 0
l20102 0
l20103 0
l20104 0
l20105 0
l20106 0
l20107 0
l20108 0
l20109 0
l20110 0
l20111 0
l20112 0
l20113 0
l20114 0
l20115 0
l20116 0
l20117 0
l20118 0
l20119 0
l20120 0
l20121 0
l20122 0
l20123 0
l20124 0
l21100 0
l21101 0
l21102 0
l21103 0
l21104 0
l21105 0
l21106 0
l21107 0
l21108 0
l21109 0
l21110 0
l21111 0
l21112 0
l21113 0
l21114 0
l21115 0
l21116 0
l21117 0
l21118 0
l21119 0
l21120 0
l21121 0
l21122 0
l21123 0
l21124 0
l22100 1
l22101 1
l22102 0
l22103 1
l22104 0
l22105 1
l22106 1
l22107 0
l22108 1
l22109 1
l22110 1
l22111 1
l22112 1
l22113 0
l22114 1
l22115 0
l22116 0
l22117 1
l22118 1
l22119 1
l22120 1
l22121 1
l22122 0
l22123 9.3235294117647205e-01
l22124 1
l23100 0
l23101 0
l23102 0
l23103 0
l23104 0
l23105 0
l23106 0
l23107 0
l23108 0
l23109 0
l23110 0
l23111 0
l23112 0
l23113 0
l23114 0
l23115 0
l23116 0
l23117 0
l23118 0
l23119 0
l23120 0
l23121 0
l23122 0
l23123 0
l23124 0
l24100 1
l24101 1
l24102 1
l24103 1
l24104 1
l24105 1
l24106 1
l24107 1
l24108 1
l24109 9.2307692307692063e-02
l24110 1
l24111 0
l24112 0
l24113 0
l24114 1
l24115 1
l24116 0
l24117 1
l24118 1
l24119 1
l24120 0
l24121 1
l24122 1
l24123 1
l24124 1
l25100 0
l25101 0
l25102 0
l25103 0
l25104 0
l25105 0
l25106 0
l25107 0
l25108 0
l25109 0
l25110 0
l25111 0
l25112 0
l25113 0
l25114 0
l25115 0
l25116 0
l25117 0
l25118 0
l25119 0
l25120 0
l25121 0
l25122 0
l25123 0
l25124 0
l26100 8.4750000000000059e-01
l26101 0
l26102 1
l26103 0
l26104 0
l26105 1
l26106 1
l26107 0
l26108 1
l26109 1
l26110 0
l26111 1
l26112 0
l26113 1
l26114 1
l26115 1
l26116 1
l26117 1
l26118 1
l26119 0
l26120 1
l26121 1
l26122 1
l26123 1
l26124 1
l27100 0
l27101 0
l27102 0
l27103 0
l27104 0
l27105 0
l27106 0
l27107 0
l27108 0
l27109 0
l27110 0
l27111 0
l27112 0
l27113 0
l27114 0
l27115 0
l27116 0
l27117 0
l27118 0
l27119 0
l27120 0
l27121 0
l27122 0
l27123 0
l27124 0
l28100 1
l28101 1
l28102 1
l28103 1
l28104 1
l28105 1
l28106 1
l28107 0
l28108 1
l28109 1
l28110 0
l28111 1.2765957446809242e-02
l28112 0
l28113 1
l28114 1
l28115 1
l28116 1
l28117 1
l28118 1
l28119 9.9999999999999967e-01
l28120 0
l28121 1
l28122 1
l28123 1
l28124 0
l29100 0
l29101 0
l29102 0
l29103 0
l29104 0
l29105 0
l29106 0
l29107 0
l29108 0
l29109 0
l29110 0
l29111 0
l29112 0
l29113 0
l29114 0
l29115 0
l29116 0
l29117 0
l29118 0
l29119 0
l29120 0
l29121 0
l29122 0
l29123 0
l29124 0
l30100 0
l30101 0
l30102 0
l30103 0
l30104 0
l30105 0
l30106 0
l30107 0
l30108 0
l30109 0
l30110 0
l30111 0
l30112 0
l30113 0
l30114 0
l30115 0
l30116 0
l30117 0
l30118 0
l30119 0
l30120 0
l30121 0
l30122 0
l30123 0
l30124 0
l31100 1
l31101 1
l31102 0
l31103 1
l31104 1
l31105 1
l31106 0
l31107 1
l31108 1
l31109 9.9999999999999922e-01
l31110 1
l31111 1
l31112 3.8888888888889979e-02
l31113 1
l31114 1
l31115 1
l31116 1
l31117 0
l31118 1
l31119 1
l31120 1
l31121 4.2499999999999719e-02
l31122 0
l31123 0
l31124 1
l32100 1
l32101 1
l32102 1
l32103 1
l32104 1
l32105 0
l32106 1
l32107 0
l32108 1
l32109 1
l32110 8.6818181818181828e-01
l32111 1
l32112 1
l32113 1
l32114 1
l32115 1
l32116 0
l32117 1
l32118 1
l32119 0
l32120 1
l32121 1
l32122 0
l32123 1
l32124 0
l33100 1
l33101 0
l33102 1
l33103 0
l33104 1
l33105 1
l33106 1
l33107 1
l33108 1
l33109 0
l33110 1
l33111 1
l33112 0
l33113 1
l33114 1
l33115 1
l33116 1
l33117 0
l33118 1
l33119 1
l33120 3.9534883720930264e-01
l33121 0
l33122 0
l33123 9.9999999999999956e-01
l33124 1
l34100 0
l34101 0
l34102 0
l34103 0
l34104 0
l34105 0
l34106 0
l34107 0
l34108 0
l34109 0
l34110 0
l34111 0
l34112 0
l34113 0
l34114 0
l34115 0
l34116 0
l34117 0
l34118 0
l34119 0
l34120 0
l34121 0
l34122 0
l34123 0
l34124 0
l35100 1
l35101 1
l35102 0
l35103 1
l35104 1
l35105 1
l35106 0
l35107 1
l35108 1
l35109 1
l35110 1
l35111 1
l35112 3.5306122448979305e-01
l35113 1
l35114 1
l35115 0
l35116 0
l35117 1
l35118 1
l35119 1
l35120 1
l35121 1
l35122 1
l35123 2.4742268041237428e-01
l35124 0
l36100 0
l36101 0
l36102 0
l36103 0
l36104 0
l36105 0
l36106 0
l36107 0
l36108 0
l36109 0
l36110 0
l36111 0
l36112 0
l36113 0
l36114 0
l36115 0
l36116 0
l36117 0
l36118 0
l36119 0
l36120 0
l36121 0
l36122 0
l36123 0
l36124 0
l37100 1
l37101 1
l37102 1
l37103 1
l37104 1
l37105 1
l37106 1
l37107 1
l37108 1
l37109 1
l37110 1
l37111 1
l37112 1
l37113 0
l37114 1
l37115 1
l37116 2.1555555555555511e-01
l37117 0
l37118 1
l37119 1
l37120 0
l37121 1
l37122 1
l37123 1.8623095896938110e-16
l37124 0
l38100 1
l38101 1
l38102 1
l38103 1
l38104 1
l38105 1
l38106 1
l38107 0
l38108 1
l38109 1
l38110 1
l38111 1
l38112 1
l38113 1
l38114 1
l38115 3.2727272727272699e-01
l38116 0
l38117 1
l38118 1
l38119 0
l38120 0
l38121 0
l38122 0
l38123 1
l38124 1
l39100 0
l39101 0
l39102 0
l39103 0
l39104 0
l39105 0
l39106 0
l39107 0
l39108 0
l39109 0
l39110 0
l39111 0
l39112 0
l39113 0
l39114 0
l39115 0
l39116 0
l39117 0
l39118 0
l39119 0
l39120 0
l39121 0
l39122 0
l39123 0
l39124 0
l40100 1
l40101 0
l40102 1
l40103 1
l40104 1
l40105 1
l40106 1
l40107 1
l40108 1
l40109 1
l40110 0
l40111 9.1842105263157836e-01
l40112 1
l40113 0
l40114 1
l40115 1
l40116 0
l40117 0
l40118 1
l40119 1
l40120 1
l40121 0
l40122 1
l40123 1
l40124 1
l41100 0
l41101 0
l41102 0
l41103 0
l41104 0
l41105 0
l41106 0
l41107 0
l41108 0
l41109 0
l41110 0
l41111 0
l41112 0
l41113 0
l41114 0
l41115 0
l41116 0
l41117 0
l41118 0
l41119 0
l41120 0
l41121 0
l41122 0
l41123 0
l41124 0
l42100 0
l42101 1
l42102 1
l42103 1
l42104 0
l42105 1
l42106 2.7777777777777582e-02
l42107 1
l42108 1
l42109 1
l42110 1
l42111 1
l42112 1
l42113 1
l42114 1
l42115 0
l42116 0
l42117 1
l42118 1
l42119 1
l42120 1
l42121 0
l42122 1
l42123 3.6808510638297970e-01
l42124 1
l43100 1
l43101 1
l43102 1
l43103 1
l43104 1.7647058823529402e-01
l43105 1
l43106 1
l43107 3.8082191780821945e-01
l43108 1
l43109 1
l43110 1
l43111 1
l43112 0
l43113 0
l43114 1
l43115 1
l43116 0
l43117 1
l43118 1
l43119 1
l43120 0
l43121 1
l43122 1
l43123 0
l43124 1
l44100 0
l44101 0
l44102 0
l44103 0
l44104 0
l44105 0
l44106 0
l44107 0
l44108 0
l44109 0
l44110 0
l44111 0
l44112 0
l44113 0
l44114 0
l44115 0
l44116 0
l44117 0
l44118 0
l44119 0
l44120 0
l44121 0
l44122 0
l44123 0
l44124 0
l45100 1
l45101 1
l45102 1
l45103 1
l45104 1
l45105 1
l45106 0
l45107 0
l45108 1
l45109 1
l45110 1
l45111 1
l45112 1
l45113 0
l45114 1
l45115 1
l45116 1
l45117 0
l45118 1
l45119 1
l45120 0
l45121 0
l45122 1.0000000000000049e-01
l45123 0
l45124 1
l46100 0
l46101 0
l46102 0
l46103 0
l46104 0
l46105 0
l46106 0
l46107 0
l46108 0
l46109 0
l46110 0
l46111 0
l46112 0
l46113 0
l46114 0
l46115 0
l46116 0
l46117 0
l46118 0
l46119 0
l46120 0
l46121 0
l46122 0
l46123 0
l46124 0
l47100 1
l47101 1
l47102 1
l47103 1
l47104 1
l47105 1
l47106 0
l47107 1
l47108 1
l47109 1
l47110 0
l47111 1
l47112 1
l47113 0
l47114 1
l47115 0
l47116 2.7083333333333570e-02
l47117 1
l47118 1
l47119 1
l47120 0
l47121 1
l47122 1
l47123 1
l47124 1
l48100 1
l48101 1
l48102 1
l48103 9.0909090909090912e-02
l48104 1
l48105 1
l48106 1
l48107 1
l48108 1
l48109 1
l48110 1
l48111 1
l48112 1
l48113 0
l48114 1
l48115 1
l48116 1
l48117 1
l48118 1
l48119 0
l48120 0
l48121 0
l48122 1
l48123 0
l48124 0
l49100 1
l49101 1
l49102 1
l49103 0
l49104 1
l49105 1
l49106 1
l49107 0
l49108 1
l49109 0
l49110 8.7037037037035769e-01
l49111 1
l49112 0
l49113 0
l49114 1
l49115 0
l49116 1
l49117 1
l49118 1
l49119 0
l49120 0
l49121 1
l49122 1
l49123 1
l49124 1
l50100 1
l50101 1
l50102 1
l50103 1
l50104 1
l50105 1
l50106 1
l50107 3.8857142857142829e-01
l50108 6.6666666666666674e-01
l50109 1
l50110 1
l50111 1
l50112 0
l50113 0
l50114 1
l50115 1
l50116 0
l50117 1
l50118 1
l50119 1
l50120 1
l50121 1
l50122 1
l50123 0
l50124 0
l51100 0
l51101 0
l51102 0
l51103 0
l51104 0
l51105 0
l51106 0
l51107 0
l51108 0
l51109 0
l51110 0
l51111 0
l51112 0
l51113 0
l51114 0
l51115 0
l51116 0
l51117 0
l51118 0
l51119 0
l51120 0
l51121 0
l51122 0
l51123 0
l51124 0
l52100 0
l52101 0
l52102 0
l52103 0
l52104 0
l52105 0
l52106 0
l52107 0
l52108 0
l52109 0
l52110 0
l52111 0
l52112 0
l52113 0
l52114 0
l52115 0
l52116 0
l52117 0
l52118 0
l52119 0
l52120 0
l52121 0
l52122 0
l52123 0
l52124 0
l53100 1
l53101 1
l53102 0
l53103 0
l53104 1
l53105 1
l53106 1
l53107 1
l53108 1
l53109 1
l53110 0
l53111 1
l53112 1
l53113 0
l53114 1
l53115 1
l53116 6.2857142857142845e-01
l53117 1
l53118 1
l53119 0
l53120 1
l53121 0
l53122 1
l53123 1
l53124 1
l54100 4.1000000000000109e-01
l54101 1
l54102 1
l54103 0
l54104 0
l54105 1
l54106 1
l54107 0
l54108 0
l54109 1
l54110 0
l54111 1
l54112 1
l54113 1
l54114 1
l54115 1
l54116 0
l54117 1
l54118 1
l54119 1
l54120 1
l54121 1
l54122 1
l54123 1
l54124 1
l55100 0
l55101 0
l55102 0
l55103 0
l55104 0
l55105 0
l55106 0
l55107 0
l55108 0
l55109 0
l55110 0
l55111 0
l55112 0
l55113 0
l55114 0
l55115 0
l55116 0
l55117 0
l55118 0
l55119 0
l55120 0
l55121 0
l55122 0
l55123 0
l55124 0
l56100 1
l56101 6.8124999999999469e-01
l56102 4.4938271604938912e-01
l56103 1
l56104 0
l56105 1
l56106 1
l56107 1
l56108 1
l56109 0
l56110 1
l56111 1
l56112 1
l56113 0
l56114 1
l56115 1
l56116 1
l56117 1
l56118 1
l56119 1
l56120 1
l56121 0
l56122 1
l56123 0
l56124 0
l57100 0
l57101 0
l57102 0
l57103 0
l57104 0
l57105 0
l57106 0
l57107 0
l57108 0
l57109 0
l57110 0
l57111 0
l57112 0
l57113 0
l57114 0
l57115 0
l57116 0
l57117 0
l57118 0
l57119 0
l57120 0
l57121 0
l57122 0
l57123 0
l57124 0
l58100 1
l58101 0
l58102 1
l58103 0
l58104 1
l58105 1
l58106 1
l58107 1
l58108 1
l58109 1
l58110 1
l58111 1
l58112 0
l58113 1
l58114 1
l58115 0
l58116 9.9999999999999800e-01
l58117 1
l58118 1
l58119 0
l58120 1
l58121 1
l58122 7.0606060606060583e-01
l58123 0
l58124 2.8367346938775589e-01
l59100 0
l59101 0
l59102 0
l59103 0
l59104 0
l59105 0
l59106 0
l59107 0
l59108 0
l59109 0
l59110 0
l59111 0
l59112 0
l59113 0
l59114 0
l59115 0
l59116 0
l59117 0
l59118 0
l59119 0
l59120 0
l59121 0
l59122 0
l59123 0
l59124 0
l60100 1
l60101 1
l60102 1
l60103 4.4347826086956643e-01
l60104 0
l60105 1
l60106 1
l60107 1
l60108 1
l60109 1
l60110 0
l60111 0
l60112 1
l60113 0
l60114 1
l60115 1
l60116 1
l60117 1
l60118 1
l60119 9.5999999999999930e-01
l60120 0
l60121 1
l60122 1
l60123 0
l60124 1
l61100 0
l61101 0
l61102 0
l61103 0
l61104 0
l61105 0
l61106 0
l61107 0
l61108 0
l61109 0
l61110 0
l61111 0
l61112 0
l61113 0
l61114 0
l61115 0
l61116 0
l61117 0
l61118 0
l61119 0
l61120 0
l61121 0
l61122 0
l61123 0
l61124 0
l62100 1
l62101 1
l62102 1
l62103 1
l62104 6.6666666666666674e-01
l62105 1
l62106 1
l62107 1
l62108 1
l62109 1
l62110 1
l62111 1
l62112 0
l62113 0
l62114 1
l62115 1
l62116 1
l62117 1
l62118 1
l62119 2.7533531010703882e-16
l62120 0
l62121 1
l62122 0
l62123 1
l62124 0
l63100 1
l63101 1
l63102 1
l63103 1
l63104 1
l63105 1
l63106 1
l63107 1
l63108 1
l63109 0
l63110 1
l63111 1
l63112 0
l63113 1
l63114 1
l63115 1
l63116 1
l63117 2.2947368421052583e-01
l63118 1
l63119 1
l63120 0
l63121 1
l63122 0
l63123 0
l63124 1
l64100 1
l64101 0
l64102 1
l64103 1
l64104 1
l64105 1
l64106 0
l64107 1
l64108 1
l64109 1
l64110 1
l64111 1
l64112 1
l64113 0
l64114 1
l64115 1
l64116 1
l64117 1
l64118 1
l64119 0
l64120 1
l64121 2.0750000000000030e-01
l64122 1
l64123 1
l64124 0
l65100 1
l65101 1
l65102 1
l65103 1
l65104 1
l65105 1
l65106 1
l65107 1
l65108 0
l65109 1
l65110 1
l65111 1
l65112 1
l65113 1
l65114 0
l65115 0
l65116 1
l65117 1
l65118 0
l65119 6.2222222222222268e-01
l65120 1
l65121 0
l65122 1
l65123 0
l65124 0
l66100 0
l66101 0
l66102 0
l66103 0
l66104 0
l66105 0
l66106 0
l66107 0
l66108 0
l66109 0
l66110 0
l66111 0
l66112 0
l66113 0
l66114 0
l66115 0
l66116 0
l66117 0
l66118 0
l66119 0
l66120 0
l66121 0
l66122 0
l66123 0
l66124 0
l67100 0
l67101 0
l67102 0
l67103 0
l67104 0
l67105 0
l67106 0
l67107 0
l67108 0
l67109 0
l67110 0
l67111 0
l67112 0
l67113 0
l67114 0
l67115 0
l67116 0
l67117 0
l67118 0
l67119 0
l67120 0
l67121 0
l67122 0
l67123 0
l67124 0
l68100 1
l68101 1
l68102 1
l68103 1
l68104 1
l68105 1
l68106 1
l68107 1
l68108 1
l68109 1
l68110 0
l68111 1
l68112 0
l68113 0
l68114 0
l68115 1
l68116 1
l68117 4.3478260869563214e-03
l68118 1
l68119 1
l68120 1
l68121 1
l68122 1
l68123 0
l68124 1
l69100 1
l69101 1
l69102 1
l69103 1
l69104 1
l69105 1
l69106 0
l69107 0
l69108 1
l69109 1
l69110 1
l69111 1
l69112 1
l69113 0
l69114 1
l69115 0
l69116 1
l69117 0
l69118 1
l69119 2.8888888888888981e-01
l69120 1
l69121 1
l69122 0
l69123 1
l69124 9.9999999999999989e-01
l70100 1
l70101 1
l70102 1
l70103 1
l70104 1
l70105 1
l70106 1
l70107 1
l70108 1
l70109 1
l70110 1
l70111 1
l70112 0
l70113 5.2702702702702764e-01
l70114 1
l70115 1
l70116 0
l70117 0
l70118 9.9999999999999922e-01
l70119 1
l70120 0
l70121 1
l70122 3.1111111111111089e-01
l70123 0
l70124 1
l71100 0
l71101 0
l71102 0
l71103 0
l71104 0
l71105 0
l71106 0
l71107 0
l71108 0
l71109 0
l71110 0
l71111 0
l71112 0
l71113 0
l71114 0
l71115 0
l71116 0
l71117 0
l71118 0
l71119 0
l71120 0
l71121 0
l71122 0
l71123 0
l71124 0
l72100 1
l72101 6.1016949152542632e-02
l72102 0
l72103 1
l72104 1
l72105 1
l72106 0
l72107 1
l72108 1
l72109 1
l72110 0
l72111 0
l72112 1
l72113 1
l72114 1
l72115 1
l72116 1
l72117 1
l72118 1
l72119 1.8966310004013090e-16
l72120 1
l72121 1
l72122 1
l72123 0
l72124 1
l73100 1
l73101 0
l73102 1
l73103 1
l73104 1
l73105 1
l73106 1
l73107 1
l73108 1
l73109 1
l73110 0
l73111 1
l73112 0
l73113 1
l73114 1
l73115 1
l73116 1
l73117 0
l73118 1
l73119 1
l73120 0
l73121 1
l73122 0
l73123 0
l73124 1.0352941176470488e-01
l74100 7.5862068965517823e-02
l74101 1
l74102 1
l74103 1
l74104 1
l74105 1
l74106 1
l74107 0
l74108 1
l74109 1
l74110 0
l74111 0
l74112 0
l74113 1
l74114 1
l74115 1
l74116 1
l74117 1
l74118 1
l74119 0
l74120 1
l74121 1
l74122 1
l74123 0
l74124 1
l75100 1
l75101 1
l75102 1
l75103 1
l75104 1
l75105 0
l75106 1
l75107 1
l75108 1
l75109 1
l75110 1
l75111 0
l75112 1
l75113 1
l75114 1
l75115 0
l75116 1
l75117 0
l75118 1
l75119 1
l75120 1
l75121 0
l75122 1
l75123 1
l75124 9.0322580645161299e-02
l76100 1
l76101 1
l76102 0
l76103 1
l76104 0
l76105 1
l76106 1
l76107 1
l76108 1
l76109 1
l76110 1
l76111 1
l76112 1
l76113 0
l76114 1
l76115 0
l76116 1
l76117 3.9999999999999958e-01
l76118 1
l76119 1
l76120 1
l76121 1
l76122 0
l76123 0
l76124 1
l77100 1
l77101 1
l77102 1
l77103 1
l77104 1
l77105 1
l77106 6.2894736842105226e-01
l77107 1
l77108 1
l77109 1
l77110 0
l77111 0
l77112 1
l77113 0
l77114 1
l77115 1
l77116 1
l77117 1
l77118 1
l77119 1
l77120 1
l77121 1
l77122 1.3750000000000018e-01
l77123 0
l77124 0
l78100 0
l78101 0
l78102 0
l78103 0
l78104 0
l78105 0
l78106 0
l78107 0
l78108 0
l78109 0
l78110 0
l78111 0
l78112 0
l78113 0
l78114 0
l78115 0
l78116 0
l78117 0
l78118 0
l78119 0
l78120 0
l78121 0
l78122 0
l78123 0
l78124 0
l79100 1
l79101 0
l79102 1
l79103 1
l79104 1
l79105 1
l79106 0
l79107 0
l79108 1
l79109 1
l79110 1
l79111 1
l79112 1
l79113 0
l79114 1
l79115 1
l79116 1
l79117 0
l79118 1
l79119 6.0357142857142876e-01
l79120 1
l79121 1
l79122 0
l79123 1
l79124 1
l80100 1
l80101 0
l80102 1
l80103 0
l80104 1
l80105 1
l80106 1
l80107 1
l80108 1
l80109 1
l80110 1
l80111 0
l80112 1
l80113 0
l80114 1
l80115 9.6825396825396914e-01
l80116 0
l80117 1
l80118 1
l80119 1
l80120 1
l80121 1
l80122 0
l80123 0
l80124 1
l81100 0
l81101 0
l81102 0
l81103 0
l81104 0
l81105 0
l81106 0
l81107 0
l81108 0
l81109 0
l81110 0
l81111 0
l81112 0
l81113 0
l81114 0
l81115 0
l81116 0
l81117 0
l81118 0
l81119 0
l81120 0
l81121 0
l81122 0
l81123 0
l81124 0
l82100 1
l82101 1
l82102 1
l82103 1
l82104 0
l82105 1.1111111111111110e-01
l82106 1
l82107 1
l82108 1
l82109 1
l82110 0
l82111 1
l82112 0
l82113 1
l82114 1
l82115 5.8387096774193159e-01
l82116 9.9999999999999778e-01
l82117 1
l82118 9.8765432098765904e-01
l82119 1
l82120 0
l82121 1
l82122 1
l82123 0
l82124 1
l83100 1
l83101 0
l83102 0
l83103 0
l83104 0
l83105 1
l83106 2.8041237113402107e-01
l83107 1
l83108 1
l83109 1
l83110 0
l83111 1
l83112 1
l83113 1
l83114 1
l83115 1
l83116 1
l83117 1
l83118 1
l83119 1
l83120 0
l83121 1
l83122 1
l83123 0
l83124 1
l84100 1
l84101 1
l84102 1
l84103 1
l84104 1
l84105 1
l84106 1
l84107 1
l84108 1
l84109 1
l84110 0
l84111 1
l84112 1
l84113 0
l84114 1
l84115 0
l84116 9.9999999999999689e-01
l84117 0
l84118 1
l84119 4.7234042553191680e-01
l84120 0
l84121 0
l84122 1
l84123 0
l84124 1
l85100 0
l85101 0
l85102 0
l85103 0
l85104 0
l85105 0
l85106 0
l85107 0
l85108 0
l85109 0
l85110 0
l85111 0
l85112 0
l85113 0
l85114 0
l85115 0
l85116 0
l85117 0
l85118 0
l85119 0
l85120 0
l85121 0
l85122 0
l85123 0
l85124 0
l86100 0
l86101 0
l86102 0
l86103 0
l86104 0
l86105 0
l86106 0
l86107 0
l86108 0
l86109 0
l86110 0
l86111 0
l86112 0
l86113 0
l86114 0
l86115 0
l86116 0
l86117 0
l86118 0
l86119 0
l86120 0
l86121 0
l86122 0
l86123 0
l86124 0
l87100 1
l87101 9.3406593406593952e-01
l87102 1
l87103 1
l87104 1
l87105 1
l87106 1
l87107 0
l87108 1
l87109 0
l87110 0
l87111 1
l87112 2.2000000000000258e-01
l87113 0
l87114 1
l87115 0
l87116 0
l87117 0
l87118 7.2941176470587255e-01
l87119 1
l87120 1
l87121 0
l87122 1
l87123 0
l87124 1
l88100 0
l88101 0
l88102 0
l88103 0
l88104 0
l88105 0
l88106 0
l88107 0
l88108 0
l88109 0
l88110 0
l88111 0
l88112 0
l88113 0
l88114 0
l88115 0
l88116 0
l88117 0
l88118 0
l88119 0
l88120 0
l88121 0
l88122 0
l88123 0
l88124 0
l89100 0
l89101 0
l89102 0
l89103 0
l89104 0
l89105 0
l89106 0
l89107 0
l89108 0
l89109 0
l89110 0
l89111 0
l89112 0
l89113 0
l89114 0
l89115 0
l89116 0
l89117 0
l89118 0
l89119 0
l89120 0
l89121 0
l89122 0
l89123 0
l89124 0
l90100 0
l90101 0
l90102 0
l90103 0
l90104 0
l90105 0
l90106 0
l90107 0
l90108 0
l90109 0
l90110 0
l90111 0
l90112 0
l90113 0
l90114 0
l90115 0
l90116 0
l90117 0
l90118 0
l90119 0
l90120 0
l90121 0
l90122 0
l90123 0
l90124 0
l91100 0
l91101 0
l91102 1.7426285449812583e-16
l91103 8.6752310761407577e-16
l91104 0
l91105 0
l91106 0
l91107 0
l91108 0
l91109 0
l91110 0
l91111 0
l91112 0
l91113 0
l91114 0
l91115 0
l91116 9.6474552484668781e-16
l91117 0
l91118 0
l91119 0
l91120 0
l91121 0
l91122 0
l91123 0
l91124 0
l92100 1
l92101 1
l92102 1
l92103 1
l92104 1
l92105 1
l92106 0
l92107 0
l92108 0
l92109 1
l92110 1
l92111 1
l92112 1
l92113 1
l92114 1
l92115 2.8131868131868176e-01
l92116 0
l92117 1
l92118 1
l92119 1
l92120 1
l92121 1
l92122 0
l92123 9.9999999999999967e-01
l92124 0
l93100 0
l93101 0
l93102 0
l93103 0
l93104 0
l93105 0
l93106 0
l93107 0
l93108 0
l93109 0
l93110 0
l93111 0
l93112 0
l93113 0
l93114 0
l93115 0
l93116 0
l93117 0
l93118 0
l93119 0
l93120 0
l93121 0
l93122 0
l93123 0
l93124 0
l94100 1
l94101 1
l94102 1
l94103 1
l94104 0
l94105 1
l94106 1
l94107 8.3333333333333337e-01
l94108 1
l94109 0
l94110 0
l94111 0
l94112 1
l94113 1
l94114 1
l94115 1
l94116 1
l94117 0
l94118 1
l94119 1
l94120 0
l94121 1
l94122 1
l94123 0
l94124 1
l95100 1
l95101 1
l95102 1
l95103 0
l95104 1
l95105 1
l95106 1
l95107 1
l95108 5.1320754716981021e-01
l95109 1
l95110 1
l95111 5.1282051282050989e-02
l95112 1
l95113 0
l95114 1
l95115 1
l95116 1
l95117 1
l95118 1
l95119 0
l95120 4.3764705882352911e-01
l95121 1
l95122 0
l95123 1.1428571428571657e-01
l95124 1
l96100 1
l96101 1
l96102 1
l96103 1
l96104 1
l96105 1
l96106 0
l96107 0
l96108 1
l96109 1
l96110 1
l96111 0
l96112 1
l96113 1
l96114 3.5505617977528114e-01
l96115 0
l96116 1
l96117 1
l96118 1
l96119 1
l96120 1
l96121 0
l96122 1
l96123 1
l96124 1
l97100 0
l97101 0
l97102 0
l97103 0
l97104 0
l97105 0
l97106 0
l97107 0
l97108 0
l97109 0
l97110 0
l97111 0
l97112 0
l97113 0
l97114 0
l97115 0
l97116 0
l97117 0
l97118 0
l97119 0
l97120 0
l97121 0
l97122 0
l97123 0
l97124 0
l98100 1
l98101 9.9999999999999978e-01
l98102 9.6179775280898283e-01
l98103 1
l98104 1
l98105 1
l98106 1
l98107 0
l98108 1
l98109 2.3678160919540336e-01
l98110 1
l98111 1
l98112 0
l98113 0
l98114 1
l98115 1
l98116 3.9569892473118767e-01
l98117 1
l98118 1
l98119 0
l98120 1
l98121 1
l98122 1
l98123 0
l98124 1
l99100 1
l99101 1
l99102 1
l99103 1
l99104 1
l99105 1
l99106 0
l99107 1
l99108 0
l99109 0
l99110 0
l99111 1
l99112 0
l99113 0
l99114 1
l99115 1
l99116 1
l99117 1
l99118 1
l99119 0.904
l99120 1
l99121 1
l99122 1
l99123 1
l99124 0
f0 0
f1 0
f2 4.9959999999999997e+02
f3 415.2
f4 3.9359999999999997e+02
f5 0
f6 0
f7 489.6
f8 494.4
f9 0
f10 450
f11 478
f12 448.8
f13 3.8239999999999992e+02
f14 4.8599999999999989e+02
f15 0
f16 3.9639999999999992e+02
f17 514.8
f18 0
f19 577.2
f20 0
f21 0
f22 5.7759999999999991e+02
f23 0
f24 447.6
f25 0
f26 4.6119999999999993e+02
f27 0
f28 542.8
f29 0
f30 0
f31 498.8
f32 425.6
f33 516
f34 0
f35 512.4
f36 0
f37 4.9959999999999997e+02
f38 459.6
f39 0
f40 453.2
f41 0
f42 442.4
f43 465.2
f44 0
f45 3.9639999999999992e+02
f46 0
f47 362.4
f48 516
f49 4.0800000000000068e+02
f50 406.8
f51 0
f52 0
f53 402.8
f54 4.2919999999999993e+02
f55 0
f56 435.2
f57 0
f58 519.6
f59 0
f60 358
f61 0
f62 400
f63 417.2
f64 434.4
f65 483.2
f66 0
f67 0
f68 444.8
f69 516.8
f70 504.8
f71 0
f72 450.4
f73 551.2
f74 5.1159999999999991e+02
f75 3.5119999999999993e+02
f76 437.6
f77 435.6
f78 0
f79 449.2
f80 4.4599999999999994e+02
f81 0
f82 426.8
f83 4.4679999999999995e+02
f84 579.6
f85 0
f86 0
f87 642.8
f88 0
f89 0
f90 0
f91 0
f92 462.4
f93 0
f94 360
f95 465.6
f96 434.4
f97 0
f98 456
f99 465.2
